networks/zoo_14_42/zoo_14_42.txt
Number of groups: 7
Flow 4: {1 2} {2 3} {3 5} {5 12} 
Flow 12: {2 1} {1 4} {4 7} {7 14} 
Flow 14: {3 2} {2 9} 
Flow 17: {5 6} {6 13} 
Flow 19: {4 1} {1 8} 
Flow 34: {6 7} {7 4} {4 11} 
Flow 39: {7 6} {6 5} {5 3} {3 10} 
Time taken running everything: 0 seconds
