networks/zoo_14_42/zoo_14_42.sol
<?xml version = "1.0" encoding="UTF-8" standalone="yes"?>
<CPLEXSolution version="1.2">
 <header
   problemName="networks/zoo_14_42/zoo_14_42.lp"
   solutionName="incumbent"
   solutionIndex="-1"
   objectiveValue="7"
   solutionTypeValue="3"
   solutionTypeString="primal"
   solutionStatusValue="101"
   solutionStatusString="integer optimal solution"
   solutionMethodString="mip"
   primalFeasible="1"
   dualFeasible="1"
   MIPNodes="0"
   MIPIterations="73"
   writeLevel="3"/>
 <quality
   epInt="1.0000000000000001e-05"
   epRHS="9.9999999999999995e-07"
   maxIntInfeas="0"
   maxPrimalInfeas="0"
   maxX="4"
   maxSlack="10"/>
 <variables>
  <variable name="Y(4,5)" index="46" value="1"/>
  <variable name="Y(12,7)" index="160" value="1"/>
  <variable name="Y(14,2)" index="183" value="1"/>
  <variable name="Y(17,6)" index="229" value="1"/>
  <variable name="Y(19,1)" index="252" value="1"/>
  <variable name="Y(34,4)" index="465" value="1"/>
  <variable name="Y(39,3)" index="534" value="1"/>
  <variable name="X(1,2,4)" index="591" value="1"/>
  <variable name="X(1,4,12)" index="641" value="1"/>
  <variable name="X(1,8,19)" index="690" value="1"/>
  <variable name="X(2,1,12)" index="725" value="1"/>
  <variable name="X(2,3,4)" index="759" value="1"/>
  <variable name="X(2,9,14)" index="811" value="1"/>
  <variable name="X(3,2,14)" index="853" value="1"/>
  <variable name="X(3,5,4)" index="885" value="1"/>
  <variable name="X(3,10,39)" index="962" value="1"/>
  <variable name="X(4,1,19)" index="984" value="1"/>
  <variable name="X(4,7,12)" index="1019" value="1"/>
  <variable name="X(4,11,34)" index="1083" value="1"/>
  <variable name="X(5,3,39)" index="1130" value="1"/>
  <variable name="X(5,6,17)" index="1150" value="1"/>
  <variable name="X(5,12,4)" index="1179" value="1"/>
  <variable name="X(6,5,39)" index="1256" value="1"/>
  <variable name="X(6,7,34)" index="1293" value="1"/>
  <variable name="X(6,13,17)" index="1318" value="1"/>
  <variable name="X(7,4,34)" index="1377" value="1"/>
  <variable name="X(7,6,39)" index="1424" value="1"/>
  <variable name="X(7,14,12)" index="1439" value="1"/>
  <variable name="C(4,2)" index="1478" value="1"/>
  <variable name="C(4,3)" index="1479" value="2"/>
  <variable name="C(4,5)" index="1480" value="3"/>
  <variable name="C(12,1)" index="1503" value="1"/>
  <variable name="C(12,4)" index="1504" value="2"/>
  <variable name="C(12,7)" index="1505" value="3"/>
  <variable name="C(14,3)" index="1509" value="3"/>
  <variable name="C(14,2)" index="1510" value="4"/>
  <variable name="C(17,6)" index="1519" value="1"/>
  <variable name="C(19,4)" index="1524" value="3"/>
  <variable name="C(19,1)" index="1525" value="4"/>
  <variable name="C(34,7)" index="1572" value="1"/>
  <variable name="C(34,4)" index="1573" value="2"/>
  <variable name="C(39,6)" index="1586" value="1"/>
  <variable name="C(39,5)" index="1587" value="2"/>
  <variable name="C(39,3)" index="1588" value="3"/>
 </variables>
</CPLEXSolution>
